
Gurobi 6.5.2 (linux64) logging started Tue Sep 20 21:17:22 2016


Gurobi 6.5.2 (linux64) logging started Tue Sep 20 21:17:22 2016

Optimize a model with 101 rows, 663 columns and 1599 nonzeros
Coefficient statistics:
  Matrix range    [1e+00, 2e+00]
  Objective range [4e+00, 1e+02]
  Bounds range    [1e+00, 1e+00]
  RHS range       [1e+00, 1e+00]
Found heuristic solution: objective 3245
Presolve removed 34 rows and 1 columns
Presolve time: 0.00s
Presolved: 67 rows, 662 columns, 1362 nonzeros
Variable types: 0 continuous, 662 integer (662 binary)

Root relaxation: objective 8.137500e+02, 74 iterations, 0.00 seconds

    Nodes    |    Current Node    |     Objective Bounds      |     Work
 Expl Unexpl |  Obj  Depth IntInf | Incumbent    BestBd   Gap | It/Node Time

     0     0  813.75000    0    6 3245.00000  813.75000  74.9%     -    0s
H    0     0                     817.0000000  813.75000  0.40%     -    0s

Explored 0 nodes (77 simplex iterations) in 0.01 seconds
Thread count was 8 (of 8 available processors)

Optimal solution found (tolerance 1.00e-04)
Best objective 8.170000000000e+02, best bound 8.170000000000e+02, gap 0.0%
